c Generated map
c Size: 10 * 10, weights in range: 1 to 10, walls: True, with ratio 0.1
c dim 5 of 6
c
p sp 100 146
c graph contains 100 nodes and 146 arcs
c
a 1 11 9
a 11 1 9
a 1 2 3
a 2 1 3
a 2 3 5
a 3 2 5
a 3 13 5
a 13 3 5
a 3 4 7
a 4 3 7
a 4 14 4
a 14 4 4
a 7 17 1
a 17 7 1
a 7 8 6
a 8 7 6
a 8 18 2
a 18 8 2
a 8 9 4
a 9 8 4
a 9 10 3
a 10 9 3
a 10 20 4
a 20 10 4
a 11 21 4
a 21 11 4
a 13 23 3
a 23 13 3
a 13 14 5
a 14 13 5
a 14 24 3
a 24 14 3
a 14 15 4
a 15 14 4
a 15 25 8
a 25 15 8
a 15 16 7
a 16 15 7
a 16 26 4
a 26 16 4
a 16 17 10
a 17 16 10
a 17 27 10
a 27 17 10
a 17 18 9
a 18 17 9
a 18 28 3
a 28 18 3
a 20 30 9
a 30 20 9
a 21 31 9
a 31 21 9
a 23 33 6
a 33 23 6
a 23 24 8
a 24 23 8
a 24 34 3
a 34 24 3
a 24 25 9
a 25 24 9
a 25 35 9
a 35 25 9
a 25 26 8
a 26 25 8
a 26 36 2
a 36 26 2
a 26 27 7
a 27 26 7
a 27 37 10
a 37 27 10
a 27 28 3
a 28 27 3
a 28 38 2
a 38 28 2
a 28 29 10
a 29 28 10
a 29 39 7
a 39 29 7
a 29 30 1
a 30 29 1
a 30 40 10
a 40 30 10
a 31 41 10
a 41 31 10
a 31 32 9
a 32 31 9
a 32 42 8
a 42 32 8
a 32 33 8
a 33 32 8
a 33 43 2
a 43 33 2
a 33 34 4
a 34 33 4
a 34 35 3
a 35 34 3
a 35 45 1
a 45 35 1
a 35 36 8
a 36 35 8
a 36 46 10
a 46 36 10
a 36 37 1
a 37 36 1
a 37 47 9
a 47 37 9
a 37 38 9
a 38 37 9
a 38 48 4
a 48 38 4
a 38 39 9
a 39 38 9
a 39 49 3
a 49 39 3
a 39 40 5
a 40 39 5
a 40 50 8
a 50 40 8
a 41 51 8
a 51 41 8
a 41 42 4
a 42 41 4
a 42 52 8
a 52 42 8
a 42 43 2
a 43 42 2
a 43 53 7
a 53 43 7
a 45 55 5
a 55 45 5
a 45 46 8
a 46 45 8
a 46 56 1
a 56 46 1
a 46 47 9
a 47 46 9
a 47 57 4
a 57 47 4
a 47 48 10
a 48 47 10
a 48 58 9
a 58 48 9
a 48 49 3
a 49 48 3
a 49 59 9
a 59 49 9
a 49 50 10
a 50 49 10
a 50 60 1
a 60 50 1
a 51 61 9
a 61 51 9
a 51 52 7
a 52 51 7
a 52 62 6
a 62 52 6
a 52 53 9
a 53 52 9
a 53 63 7
a 63 53 7
a 53 54 2
a 54 53 2
a 54 64 1
a 64 54 1
a 54 55 4
a 55 54 4
a 55 65 9
a 65 55 9
a 55 56 3
a 56 55 3
a 56 66 2
a 66 56 2
a 56 57 6
a 57 56 6
a 57 67 1
a 67 57 1
a 57 58 1
a 58 57 1
a 58 68 10
a 68 58 10
a 58 59 5
a 59 58 5
a 59 69 4
a 69 59 4
a 59 60 9
a 60 59 9
a 60 70 9
a 70 60 9
a 61 71 7
a 71 61 7
a 61 62 1
a 62 61 1
a 62 72 7
a 72 62 7
a 62 63 3
a 63 62 3
a 63 64 1
a 64 63 1
a 64 74 2
a 74 64 2
a 64 65 1
a 65 64 1
a 65 75 2
a 75 65 2
a 65 66 9
a 66 65 9
a 66 67 3
a 67 66 3
a 67 77 5
a 77 67 5
a 67 68 4
a 68 67 4
a 68 78 6
a 78 68 6
a 68 69 4
a 69 68 4
a 69 79 7
a 79 69 7
a 69 70 9
a 70 69 9
a 70 80 9
a 80 70 9
a 71 81 4
a 81 71 4
a 71 72 9
a 72 71 9
a 72 82 1
a 82 72 1
a 74 84 7
a 84 74 7
a 74 75 7
a 75 74 7
a 75 85 2
a 85 75 2
a 77 87 9
a 87 77 9
a 77 78 9
a 78 77 9
a 78 88 2
a 88 78 2
a 78 79 6
a 79 78 6
a 79 89 10
a 89 79 10
a 79 80 2
a 80 79 2
a 80 90 2
a 90 80 2
a 81 91 2
a 91 81 2
a 81 82 1
a 82 81 1
a 82 92 6
a 92 82 6
a 82 83 9
a 83 82 9
a 83 93 4
a 93 83 4
a 83 84 2
a 84 83 2
a 84 94 3
a 94 84 3
a 84 85 9
a 85 84 9
a 85 95 9
a 95 85 9
a 87 88 7
a 88 87 7
a 88 98 2
a 98 88 2
a 88 89 3
a 89 88 3
a 89 99 1
a 99 89 1
a 89 90 3
a 90 89 3
a 90 100 6
a 100 90 6
a 91 92 8
a 92 91 8
a 92 93 7
a 93 92 7
a 93 94 8
a 94 93 8
a 94 95 8
a 95 94 8
a 95 96 8
a 96 95 8
a 98 99 6
a 99 98 6
a 99 100 10
a 100 99 10
